c "214176.clq"
p edge 254 3808
e 1 17
e 1 23
e 1 24
e 1 27
e 1 28
e 1 40
e 1 73
e 1 83
e 1 105
e 1 126
e 1 127
e 1 130
e 1 137
e 1 175
e 1 183
e 1 189
e 2 17
e 2 18
e 2 19
e 2 20
e 2 21
e 2 22
e 2 25
e 2 26
e 2 28
e 2 29
e 2 31
e 2 34
e 2 37
e 2 38
e 2 39
e 2 44
e 2 58
e 2 59
e 2 62
e 2 66
e 2 78
e 2 82
e 2 83
e 2 87
e 2 95
e 2 100
e 2 102
e 2 103
e 2 106
e 2 110
e 2 116
e 2 123
e 2 126
e 2 128
e 2 131
e 2 132
e 2 146
e 2 147
e 2 168
e 2 175
e 2 176
e 2 180
e 2 207
e 2 218
e 2 228
e 2 237
e 3 17
e 3 18
e 3 19
e 3 20
e 3 21
e 3 24
e 3 26
e 3 28
e 3 30
e 3 37
e 3 38
e 3 45
e 3 52
e 3 61
e 3 81
e 3 83
e 3 96
e 3 111
e 3 121
e 3 130
e 3 146
e 3 157
e 3 160
e 3 201
e 3 230
e 3 236
e 3 240
e 4 17
e 4 18
e 4 19
e 4 20
e 4 21
e 4 22
e 4 23
e 4 24
e 4 26
e 4 28
e 4 34
e 4 40
e 4 41
e 4 44
e 4 45
e 4 48
e 4 49
e 4 55
e 4 62
e 4 70
e 4 81
e 4 85
e 4 86
e 4 91
e 4 94
e 4 99
e 4 108
e 4 121
e 4 125
e 4 137
e 4 140
e 4 147
e 4 156
e 4 160
e 4 163
e 4 178
e 4 180
e 4 196
e 4 227
e 4 232
e 4 240
e 4 250
e 4 254
e 5 17
e 5 18
e 5 19
e 5 20
e 5 21
e 5 22
e 5 24
e 5 25
e 5 26
e 5 27
e 5 28
e 5 29
e 5 30
e 5 31
e 5 33
e 5 35
e 5 36
e 5 37
e 5 39
e 5 40
e 5 41
e 5 43
e 5 46
e 5 47
e 5 48
e 5 49
e 5 50
e 5 54
e 5 55
e 5 56
e 5 57
e 5 64
e 5 67
e 5 72
e 5 76
e 5 77
e 5 80
e 5 95
e 5 96
e 5 101
e 5 103
e 5 104
e 5 106
e 5 111
e 5 112
e 5 114
e 5 115
e 5 118
e 5 123
e 5 124
e 5 131
e 5 132
e 5 141
e 5 149
e 5 156
e 5 163
e 5 167
e 5 175
e 5 176
e 5 192
e 5 209
e 5 212
e 5 214
e 5 217
e 5 222
e 5 231
e 5 232
e 5 233
e 5 236
e 5 250
e 6 17
e 6 18
e 6 19
e 6 20
e 6 23
e 6 24
e 6 25
e 6 27
e 6 28
e 6 31
e 6 34
e 6 38
e 6 41
e 6 43
e 6 49
e 6 55
e 6 58
e 6 67
e 6 76
e 6 77
e 6 79
e 6 82
e 6 90
e 6 91
e 6 99
e 6 103
e 6 104
e 6 109
e 6 126
e 6 141
e 6 155
e 6 162
e 6 173
e 6 176
e 6 246
e 6 249
e 6 250
e 7 17
e 7 18
e 7 19
e 7 20
e 7 21
e 7 23
e 7 24
e 7 25
e 7 26
e 7 27
e 7 28
e 7 30
e 7 31
e 7 32
e 7 37
e 7 38
e 7 42
e 7 44
e 7 46
e 7 47
e 7 48
e 7 57
e 7 61
e 7 62
e 7 65
e 7 66
e 7 68
e 7 69
e 7 70
e 7 75
e 7 76
e 7 78
e 7 85
e 7 102
e 7 104
e 7 105
e 7 108
e 7 115
e 7 122
e 7 128
e 7 138
e 7 148
e 7 156
e 7 160
e 7 168
e 7 176
e 7 178
e 7 185
e 7 189
e 7 194
e 7 197
e 7 210
e 7 219
e 7 224
e 7 228
e 7 233
e 7 235
e 7 243
e 7 253
e 8 17
e 8 18
e 8 20
e 8 21
e 8 22
e 8 25
e 8 26
e 8 29
e 8 30
e 8 33
e 8 34
e 8 36
e 8 37
e 8 38
e 8 39
e 8 45
e 8 58
e 8 59
e 8 60
e 8 62
e 8 66
e 8 71
e 8 73
e 8 75
e 8 77
e 8 78
e 8 86
e 8 91
e 8 92
e 8 112
e 8 120
e 8 129
e 8 158
e 8 161
e 8 168
e 8 169
e 8 178
e 8 188
e 8 195
e 8 197
e 8 204
e 8 205
e 8 212
e 8 215
e 8 237
e 8 238
e 9 17
e 9 18
e 9 19
e 9 20
e 9 25
e 9 31
e 9 36
e 9 38
e 9 63
e 9 78
e 9 86
e 9 98
e 9 102
e 9 105
e 9 122
e 9 182
e 9 191
e 9 220
e 9 222
e 9 237
e 10 17
e 10 18
e 10 19
e 10 20
e 10 21
e 10 22
e 10 23
e 10 24
e 10 26
e 10 34
e 10 36
e 10 44
e 10 45
e 10 49
e 10 58
e 10 64
e 10 68
e 10 73
e 10 75
e 10 77
e 10 94
e 10 106
e 10 195
e 10 196
e 10 199
e 10 200
e 10 208
e 11 17
e 11 18
e 11 19
e 11 20
e 11 21
e 11 22
e 11 23
e 11 24
e 11 25
e 11 27
e 11 29
e 11 32
e 11 34
e 11 35
e 11 36
e 11 40
e 11 43
e 11 47
e 11 50
e 11 57
e 11 61
e 11 63
e 11 68
e 11 69
e 11 73
e 11 75
e 11 76
e 11 81
e 11 82
e 11 89
e 11 91
e 11 95
e 11 96
e 11 101
e 11 102
e 11 106
e 11 107
e 11 108
e 11 112
e 11 118
e 11 127
e 11 131
e 11 138
e 11 142
e 11 153
e 11 154
e 11 155
e 11 165
e 11 169
e 11 170
e 11 174
e 11 175
e 11 181
e 11 199
e 11 201
e 11 238
e 11 242
e 12 17
e 12 18
e 12 19
e 12 20
e 12 21
e 12 22
e 12 23
e 12 24
e 12 25
e 12 27
e 12 28
e 12 29
e 12 30
e 12 32
e 12 36
e 12 37
e 12 40
e 12 42
e 12 43
e 12 44
e 12 45
e 12 46
e 12 48
e 12 52
e 12 57
e 12 60
e 12 63
e 12 70
e 12 77
e 12 80
e 12 81
e 12 88
e 12 91
e 12 92
e 12 95
e 12 101
e 12 106
e 12 110
e 12 121
e 12 134
e 12 141
e 12 142
e 12 143
e 12 170
e 12 177
e 12 189
e 12 192
e 12 203
e 12 208
e 12 213
e 12 238
e 12 239
e 12 250
e 13 17
e 13 18
e 13 19
e 13 21
e 13 22
e 13 26
e 13 28
e 13 29
e 13 33
e 13 43
e 13 59
e 13 64
e 13 74
e 13 163
e 13 253
e 14 17
e 14 18
e 14 19
e 14 22
e 14 23
e 14 24
e 14 34
e 14 73
e 14 86
e 14 102
e 14 104
e 14 112
e 14 113
e 14 125
e 14 170
e 14 177
e 14 241
e 15 17
e 15 18
e 15 19
e 15 20
e 15 21
e 15 22
e 15 23
e 15 31
e 15 35
e 15 38
e 15 41
e 15 48
e 15 49
e 15 55
e 15 65
e 15 75
e 15 76
e 15 77
e 15 80
e 15 83
e 15 89
e 15 93
e 15 98
e 15 99
e 15 101
e 15 113
e 15 119
e 15 129
e 15 137
e 15 146
e 15 147
e 15 158
e 15 165
e 15 183
e 15 210
e 15 220
e 15 226
e 15 240
e 16 17
e 16 18
e 16 19
e 16 20
e 16 21
e 16 22
e 16 23
e 16 26
e 16 27
e 16 29
e 16 33
e 16 36
e 16 37
e 16 42
e 16 45
e 16 56
e 16 61
e 16 66
e 16 71
e 16 72
e 16 97
e 16 160
e 16 164
e 16 173
e 16 174
e 16 191
e 16 201
e 16 203
e 16 213
e 17 18
e 17 19
e 17 20
e 17 21
e 17 22
e 17 23
e 17 25
e 17 26
e 17 27
e 17 29
e 17 30
e 17 32
e 17 34
e 17 35
e 17 36
e 17 37
e 17 38
e 17 39
e 17 40
e 17 42
e 17 45
e 17 46
e 17 47
e 17 51
e 17 52
e 17 55
e 17 56
e 17 60
e 17 61
e 17 62
e 17 63
e 17 64
e 17 67
e 17 75
e 17 79
e 17 83
e 17 85
e 17 89
e 17 92
e 17 95
e 17 97
e 17 103
e 17 110
e 17 111
e 17 112
e 17 115
e 17 117
e 17 125
e 17 130
e 17 134
e 17 142
e 17 144
e 17 146
e 17 148
e 17 156
e 17 161
e 17 172
e 17 174
e 17 178
e 17 179
e 17 182
e 17 184
e 17 186
e 17 190
e 17 193
e 17 205
e 17 207
e 17 211
e 17 217
e 17 220
e 17 222
e 17 224
e 17 227
e 17 235
e 17 239
e 17 247
e 17 248
e 17 249
e 17 254
e 18 19
e 18 20
e 18 21
e 18 22
e 18 23
e 18 24
e 18 25
e 18 26
e 18 27
e 18 28
e 18 29
e 18 30
e 18 31
e 18 32
e 18 33
e 18 34
e 18 35
e 18 37
e 18 39
e 18 40
e 18 41
e 18 42
e 18 43
e 18 46
e 18 49
e 18 50
e 18 53
e 18 54
e 18 56
e 18 58
e 18 60
e 18 63
e 18 65
e 18 67
e 18 68
e 18 69
e 18 70
e 18 75
e 18 76
e 18 77
e 18 78
e 18 82
e 18 83
e 18 84
e 18 85
e 18 86
e 18 88
e 18 93
e 18 96
e 18 97
e 18 100
e 18 105
e 18 108
e 18 114
e 18 121
e 18 126
e 18 132
e 18 134
e 18 137
e 18 139
e 18 142
e 18 151
e 18 157
e 18 165
e 18 168
e 18 169
e 18 171
e 18 174
e 18 175
e 18 178
e 18 188
e 18 195
e 18 200
e 18 202
e 18 208
e 18 209
e 18 211
e 18 212
e 18 213
e 18 223
e 18 228
e 18 250
e 19 20
e 19 21
e 19 22
e 19 23
e 19 24
e 19 25
e 19 26
e 19 27
e 19 28
e 19 29
e 19 30
e 19 31
e 19 32
e 19 34
e 19 35
e 19 36
e 19 37
e 19 38
e 19 39
e 19 43
e 19 46
e 19 47
e 19 49
e 19 50
e 19 51
e 19 53
e 19 58
e 19 61
e 19 62
e 19 63
e 19 64
e 19 67
e 19 69
e 19 71
e 19 79
e 19 81
e 19 82
e 19 83
e 19 85
e 19 86
e 19 88
e 19 89
e 19 90
e 19 91
e 19 92
e 19 95
e 19 97
e 19 98
e 19 107
e 19 111
e 19 115
e 19 118
e 19 122
e 19 135
e 19 136
e 19 139
e 19 140
e 19 145
e 19 146
e 19 151
e 19 152
e 19 153
e 19 158
e 19 160
e 19 161
e 19 165
e 19 168
e 19 171
e 19 176
e 19 183
e 19 185
e 19 189
e 19 192
e 19 193
e 19 197
e 19 202
e 19 208
e 19 221
e 19 227
e 19 236
e 19 240
e 19 248
e 19 252
e 20 21
e 20 22
e 20 23
e 20 24
e 20 25
e 20 28
e 20 30
e 20 31
e 20 32
e 20 33
e 20 35
e 20 36
e 20 37
e 20 38
e 20 41
e 20 43
e 20 44
e 20 45
e 20 46
e 20 47
e 20 51
e 20 52
e 20 53
e 20 57
e 20 60
e 20 61
e 20 63
e 20 66
e 20 70
e 20 73
e 20 75
e 20 76
e 20 78
e 20 87
e 20 88
e 20 93
e 20 98
e 20 99
e 20 110
e 20 111
e 20 115
e 20 116
e 20 121
e 20 124
e 20 125
e 20 130
e 20 131
e 20 132
e 20 133
e 20 135
e 20 137
e 20 139
e 20 141
e 20 143
e 20 148
e 20 151
e 20 152
e 20 156
e 20 158
e 20 161
e 20 162
e 20 165
e 20 166
e 20 175
e 20 177
e 20 181
e 20 182
e 20 197
e 20 200
e 20 216
e 20 218
e 20 219
e 20 228
e 20 231
e 20 242
e 20 246
e 20 250
e 20 252
e 20 254
e 21 22
e 21 23
e 21 24
e 21 25
e 21 26
e 21 27
e 21 29
e 21 30
e 21 32
e 21 33
e 21 34
e 21 35
e 21 36
e 21 42
e 21 44
e 21 47
e 21 49
e 21 52
e 21 54
e 21 56
e 21 57
e 21 58
e 21 59
e 21 64
e 21 69
e 21 74
e 21 80
e 21 81
e 21 86
e 21 89
e 21 91
e 21 96
e 21 99
e 21 101
e 21 104
e 21 107
e 21 108
e 21 109
e 21 113
e 21 115
e 21 116
e 21 117
e 21 130
e 21 132
e 21 145
e 21 148
e 21 153
e 21 155
e 21 156
e 21 164
e 21 166
e 21 167
e 21 169
e 21 185
e 21 186
e 21 194
e 21 196
e 21 202
e 21 209
e 21 210
e 21 212
e 21 213
e 21 218
e 21 219
e 21 226
e 21 231
e 21 234
e 21 253
e 22 23
e 22 24
e 22 25
e 22 26
e 22 27
e 22 28
e 22 30
e 22 31
e 22 32
e 22 35
e 22 36
e 22 37
e 22 39
e 22 40
e 22 41
e 22 42
e 22 44
e 22 46
e 22 47
e 22 48
e 22 51
e 22 53
e 22 55
e 22 56
e 22 60
e 22 63
e 22 66
e 22 67
e 22 70
e 22 71
e 22 75
e 22 76
e 22 77
e 22 89
e 22 92
e 22 93
e 22 95
e 22 102
e 22 107
e 22 116
e 22 118
e 22 121
e 22 123
e 22 125
e 22 132
e 22 140
e 22 143
e 22 145
e 22 154
e 22 157
e 22 161
e 22 164
e 22 172
e 22 174
e 22 181
e 22 185
e 22 187
e 22 188
e 22 195
e 22 196
e 22 197
e 22 223
e 22 226
e 22 233
e 22 234
e 22 240
e 22 245
e 23 24
e 23 25
e 23 26
e 23 27
e 23 28
e 23 31
e 23 32
e 23 33
e 23 39
e 23 41
e 23 43
e 23 44
e 23 47
e 23 50
e 23 53
e 23 54
e 23 55
e 23 65
e 23 66
e 23 68
e 23 73
e 23 74
e 23 78
e 23 82
e 23 84
e 23 86
e 23 90
e 23 93
e 23 94
e 23 103
e 23 113
e 23 116
e 23 119
e 23 121
e 23 125
e 23 159
e 23 173
e 23 175
e 23 177
e 23 183
e 23 184
e 23 191
e 23 195
e 23 198
e 23 199
e 23 202
e 23 219
e 23 224
e 23 238
e 23 246
e 24 25
e 24 26
e 24 27
e 24 29
e 24 31
e 24 32
e 24 33
e 24 34
e 24 37
e 24 38
e 24 41
e 24 42
e 24 45
e 24 46
e 24 48
e 24 51
e 24 52
e 24 54
e 24 56
e 24 59
e 24 60
e 24 62
e 24 63
e 24 64
e 24 66
e 24 68
e 24 70
e 24 71
e 24 76
e 24 77
e 24 84
e 24 87
e 24 88
e 24 89
e 24 94
e 24 100
e 24 103
e 24 111
e 24 112
e 24 116
e 24 117
e 24 120
e 24 121
e 24 123
e 24 126
e 24 130
e 24 134
e 24 135
e 24 139
e 24 143
e 24 145
e 24 152
e 24 154
e 24 159
e 24 160
e 24 163
e 24 168
e 24 169
e 24 176
e 24 200
e 24 205
e 24 209
e 24 215
e 24 217
e 24 218
e 24 227
e 24 231
e 24 233
e 24 240
e 24 242
e 24 245
e 24 248
e 24 249
e 24 254
e 25 27
e 25 29
e 25 30
e 25 31
e 25 32
e 25 34
e 25 35
e 25 40
e 25 41
e 25 42
e 25 43
e 25 46
e 25 49
e 25 53
e 25 57
e 25 59
e 25 62
e 25 63
e 25 65
e 25 66
e 25 67
e 25 68
e 25 69
e 25 71
e 25 72
e 25 74
e 25 81
e 25 82
e 25 83
e 25 89
e 25 91
e 25 98
e 25 99
e 25 100
e 25 101
e 25 102
e 25 109
e 25 110
e 25 112
e 25 116
e 25 118
e 25 124
e 25 127
e 25 128
e 25 132
e 25 135
e 25 136
e 25 141
e 25 144
e 25 147
e 25 168
e 25 172
e 25 173
e 25 176
e 25 177
e 25 180
e 25 181
e 25 184
e 25 187
e 25 188
e 25 191
e 25 192
e 25 198
e 25 200
e 25 209
e 25 210
e 25 215
e 25 216
e 25 226
e 25 227
e 25 243
e 25 247
e 25 254
e 26 27
e 26 28
e 26 29
e 26 30
e 26 31
e 26 32
e 26 33
e 26 34
e 26 36
e 26 38
e 26 43
e 26 45
e 26 48
e 26 50
e 26 51
e 26 53
e 26 54
e 26 55
e 26 57
e 26 58
e 26 59
e 26 62
e 26 66
e 26 67
e 26 68
e 26 69
e 26 71
e 26 74
e 26 78
e 26 88
e 26 91
e 26 95
e 26 98
e 26 100
e 26 105
e 26 106
e 26 109
e 26 111
e 26 113
e 26 117
e 26 119
e 26 122
e 26 125
e 26 129
e 26 136
e 26 139
e 26 141
e 26 157
e 26 159
e 26 164
e 26 170
e 26 175
e 26 178
e 26 182
e 26 192
e 26 195
e 26 198
e 26 201
e 26 206
e 26 215
e 26 216
e 26 217
e 26 218
e 26 219
e 26 221
e 26 225
e 26 226
e 26 240
e 26 244
e 26 253
e 27 28
e 27 29
e 27 30
e 27 32
e 27 33
e 27 35
e 27 36
e 27 37
e 27 38
e 27 39
e 27 43
e 27 44
e 27 49
e 27 50
e 27 52
e 27 54
e 27 57
e 27 58
e 27 59
e 27 60
e 27 62
e 27 65
e 27 70
e 27 72
e 27 77
e 27 78
e 27 79
e 27 80
e 27 81
e 27 82
e 27 83
e 27 84
e 27 90
e 27 92
e 27 95
e 27 98
e 27 99
e 27 101
e 27 108
e 27 109
e 27 116
e 27 118
e 27 127
e 27 134
e 27 135
e 27 136
e 27 138
e 27 141
e 27 149
e 27 150
e 27 154
e 27 156
e 27 161
e 27 164
e 27 167
e 27 169
e 27 170
e 27 184
e 27 185
e 27 186
e 27 188
e 27 201
e 27 207
e 27 212
e 27 215
e 27 217
e 27 218
e 27 233
e 27 240
e 27 244
e 27 246
e 27 247
e 27 249
e 27 253
e 28 29
e 28 30
e 28 31
e 28 32
e 28 33
e 28 35
e 28 38
e 28 39
e 28 40
e 28 41
e 28 42
e 28 47
e 28 48
e 28 51
e 28 52
e 28 55
e 28 56
e 28 57
e 28 63
e 28 67
e 28 71
e 28 73
e 28 74
e 28 80
e 28 85
e 28 93
e 28 99
e 28 100
e 28 108
e 28 109
e 28 111
e 28 131
e 28 138
e 28 139
e 28 141
e 28 147
e 28 149
e 28 150
e 28 151
e 28 156
e 28 168
e 28 169
e 28 181
e 28 185
e 28 186
e 28 187
e 28 190
e 28 193
e 28 196
e 28 202
e 28 204
e 28 207
e 28 215
e 28 216
e 28 227
e 28 231
e 28 232
e 28 236
e 28 237
e 29 30
e 29 32
e 29 33
e 29 39
e 29 40
e 29 41
e 29 44
e 29 45
e 29 46
e 29 47
e 29 48
e 29 49
e 29 50
e 29 52
e 29 53
e 29 54
e 29 55
e 29 57
e 29 59
e 29 60
e 29 64
e 29 65
e 29 67
e 29 69
e 29 70
e 29 76
e 29 78
e 29 80
e 29 83
e 29 84
e 29 88
e 29 90
e 29 97
e 29 99
e 29 101
e 29 102
e 29 114
e 29 115
e 29 117
e 29 118
e 29 121
e 29 124
e 29 127
e 29 131
e 29 138
e 29 142
e 29 148
e 29 151
e 29 156
e 29 170
e 29 178
e 29 179
e 29 182
e 29 187
e 29 191
e 29 201
e 29 203
e 29 205
e 29 208
e 29 209
e 29 210
e 29 211
e 29 224
e 29 231
e 29 233
e 29 234
e 29 240
e 29 243
e 29 248
e 29 252
e 29 254
e 30 31
e 30 33
e 30 34
e 30 35
e 30 36
e 30 37
e 30 38
e 30 39
e 30 40
e 30 42
e 30 44
e 30 47
e 30 48
e 30 49
e 30 50
e 30 51
e 30 53
e 30 54
e 30 58
e 30 60
e 30 63
e 30 64
e 30 74
e 30 78
e 30 80
e 30 84
e 30 87
e 30 89
e 30 91
e 30 98
e 30 103
e 30 107
e 30 114
e 30 117
e 30 125
e 30 126
e 30 129
e 30 132
e 30 133
e 30 135
e 30 138
e 30 146
e 30 150
e 30 152
e 30 153
e 30 155
e 30 167
e 30 173
e 30 187
e 30 188
e 30 193
e 30 200
e 30 205
e 30 207
e 30 212
e 30 215
e 30 217
e 30 225
e 30 232
e 30 235
e 30 236
e 30 237
e 30 241
e 30 245
e 30 249
e 31 33
e 31 35
e 31 37
e 31 39
e 31 40
e 31 43
e 31 47
e 31 48
e 31 49
e 31 51
e 31 52
e 31 54
e 31 56
e 31 59
e 31 63
e 31 73
e 31 75
e 31 79
e 31 85
e 31 88
e 31 91
e 31 92
e 31 95
e 31 96
e 31 97
e 31 106
e 31 110
e 31 112
e 31 119
e 31 122
e 31 123
e 31 124
e 31 133
e 31 137
e 31 142
e 31 143
e 31 145
e 31 153
e 31 158
e 31 159
e 31 161
e 31 182
e 31 184
e 31 188
e 31 191
e 31 198
e 31 208
e 31 214
e 31 216
e 31 220
e 31 226
e 31 229
e 31 252
e 32 33
e 32 34
e 32 38
e 32 41
e 32 48
e 32 50
e 32 54
e 32 56
e 32 60
e 32 61
e 32 64
e 32 65
e 32 66
e 32 69
e 32 72
e 32 73
e 32 74
e 32 83
e 32 85
e 32 89
e 32 92
e 32 98
e 32 112
e 32 120
e 32 122
e 32 123
e 32 128
e 32 131
e 32 133
e 32 138
e 32 145
e 32 159
e 32 160
e 32 162
e 32 163
e 32 164
e 32 166
e 32 167
e 32 170
e 32 173
e 32 190
e 32 192
e 32 193
e 32 207
e 32 218
e 32 219
e 32 220
e 32 221
e 32 224
e 32 235
e 33 35
e 33 36
e 33 40
e 33 41
e 33 42
e 33 51
e 33 53
e 33 54
e 33 55
e 33 56
e 33 57
e 33 58
e 33 59
e 33 60
e 33 61
e 33 64
e 33 69
e 33 71
e 33 73
e 33 76
e 33 83
e 33 85
e 33 96
e 33 100
e 33 106
e 33 107
e 33 110
e 33 118
e 33 123
e 33 124
e 33 126
e 33 127
e 33 136
e 33 140
e 33 142
e 33 146
e 33 152
e 33 157
e 33 161
e 33 181
e 33 182
e 33 190
e 33 195
e 33 199
e 33 213
e 33 214
e 33 215
e 33 217
e 33 223
e 33 227
e 33 233
e 33 234
e 33 237
e 33 241
e 33 243
e 33 248
e 33 249
e 33 253
e 34 35
e 34 39
e 34 41
e 34 42
e 34 43
e 34 44
e 34 46
e 34 50
e 34 51
e 34 52
e 34 62
e 34 66
e 34 69
e 34 75
e 34 80
e 34 88
e 34 92
e 34 93
e 34 94
e 34 96
e 34 106
e 34 113
e 34 116
e 34 119
e 34 121
e 34 126
e 34 129
e 34 130
e 34 131
e 34 143
e 34 148
e 34 149
e 34 155
e 34 163
e 34 180
e 34 185
e 34 187
e 34 200
e 34 201
e 34 204
e 34 209
e 34 211
e 34 215
e 34 216
e 34 220
e 34 228
e 34 230
e 34 236
e 34 238
e 34 242
e 34 252
e 35 39
e 35 43
e 35 45
e 35 50
e 35 53
e 35 56
e 35 74
e 35 80
e 35 90
e 35 93
e 35 99
e 35 106
e 35 109
e 35 114
e 35 125
e 35 131
e 35 135
e 35 142
e 35 147
e 35 148
e 35 154
e 35 194
e 35 203
e 35 213
e 35 222
e 36 45
e 36 46
e 36 50
e 36 53
e 36 55
e 36 57
e 36 58
e 36 61
e 36 67
e 36 69
e 36 73
e 36 79
e 36 85
e 36 92
e 36 93
e 36 101
e 36 102
e 36 103
e 36 104
e 36 108
e 36 119
e 36 123
e 36 126
e 36 127
e 36 140
e 36 142
e 36 163
e 36 166
e 36 168
e 36 180
e 36 188
e 36 196
e 36 197
e 36 202
e 36 204
e 36 206
e 36 229
e 36 231
e 36 240
e 36 247
e 37 40
e 37 45
e 37 48
e 37 49
e 37 58
e 37 60
e 37 61
e 37 63
e 37 74
e 37 81
e 37 89
e 37 92
e 37 93
e 37 98
e 37 102
e 37 104
e 37 107
e 37 114
e 37 115
e 37 117
e 37 118
e 37 135
e 37 145
e 37 179
e 37 196
e 37 201
e 37 243
e 37 246
e 38 39
e 38 40
e 38 42
e 38 47
e 38 51
e 38 53
e 38 55
e 38 58
e 38 64
e 38 72
e 38 80
e 38 95
e 38 101
e 38 105
e 38 110
e 38 135
e 38 144
e 38 149
e 38 152
e 38 164
e 38 174
e 38 197
e 38 205
e 38 210
e 38 217
e 38 219
e 38 220
e 38 228
e 38 239
e 38 247
e 38 253
e 39 41
e 39 42
e 39 44
e 39 48
e 39 49
e 39 55
e 39 56
e 39 61
e 39 64
e 39 65
e 39 68
e 39 69
e 39 71
e 39 77
e 39 81
e 39 88
e 39 93
e 39 99
e 39 109
e 39 121
e 39 125
e 39 130
e 39 134
e 39 140
e 39 144
e 39 145
e 39 146
e 39 162
e 39 167
e 39 177
e 39 187
e 39 197
e 39 206
e 39 211
e 39 221
e 39 229
e 39 239
e 39 248
e 39 250
e 40 44
e 40 45
e 40 46
e 40 53
e 40 57
e 40 63
e 40 67
e 40 69
e 40 79
e 40 88
e 40 104
e 40 106
e 40 128
e 40 129
e 40 134
e 40 138
e 40 142
e 40 146
e 40 151
e 40 155
e 40 156
e 40 159
e 40 194
e 40 200
e 40 203
e 40 207
e 40 209
e 40 221
e 40 222
e 40 239
e 40 252
e 40 254
e 41 42
e 41 46
e 41 47
e 41 50
e 41 52
e 41 53
e 41 55
e 41 62
e 41 65
e 41 68
e 41 70
e 41 71
e 41 72
e 41 81
e 41 87
e 41 94
e 41 95
e 41 103
e 41 112
e 41 114
e 41 123
e 41 124
e 41 146
e 41 152
e 41 155
e 41 174
e 41 175
e 41 179
e 41 193
e 41 204
e 41 206
e 41 211
e 41 216
e 41 225
e 41 243
e 41 252
e 42 43
e 42 44
e 42 45
e 42 51
e 42 54
e 42 55
e 42 58
e 42 70
e 42 72
e 42 77
e 42 82
e 42 93
e 42 96
e 42 104
e 42 105
e 42 113
e 42 123
e 42 145
e 42 166
e 42 170
e 42 175
e 42 182
e 42 194
e 42 208
e 42 226
e 42 235
e 42 241
e 43 52
e 43 56
e 43 66
e 43 67
e 43 84
e 43 85
e 43 103
e 43 107
e 43 119
e 43 127
e 43 148
e 43 151
e 43 159
e 43 167
e 43 175
e 43 187
e 43 194
e 43 196
e 43 223
e 44 46
e 44 49
e 44 52
e 44 59
e 44 60
e 44 76
e 44 79
e 44 87
e 44 92
e 44 94
e 44 100
e 44 101
e 44 105
e 44 133
e 44 139
e 44 145
e 44 150
e 44 151
e 44 153
e 44 164
e 44 171
e 44 176
e 44 185
e 44 190
e 44 201
e 44 204
e 44 211
e 44 212
e 44 214
e 44 220
e 44 228
e 45 48
e 45 50
e 45 51
e 45 56
e 45 62
e 45 72
e 45 82
e 45 83
e 45 84
e 45 88
e 45 95
e 45 97
e 45 100
e 45 101
e 45 108
e 45 116
e 45 117
e 45 118
e 45 119
e 45 123
e 45 124
e 45 130
e 45 139
e 45 140
e 45 141
e 45 147
e 45 149
e 45 150
e 45 151
e 45 157
e 45 160
e 45 161
e 45 165
e 45 167
e 45 182
e 45 183
e 45 189
e 45 193
e 45 197
e 45 208
e 45 234
e 46 47
e 46 52
e 46 54
e 46 57
e 46 59
e 46 65
e 46 71
e 46 73
e 46 84
e 46 91
e 46 109
e 46 120
e 46 124
e 46 128
e 46 149
e 46 164
e 46 176
e 46 181
e 46 185
e 46 189
e 46 198
e 46 206
e 46 214
e 46 218
e 46 224
e 46 242
e 46 244
e 47 50
e 47 51
e 47 53
e 47 54
e 47 64
e 47 67
e 47 70
e 47 75
e 47 79
e 47 88
e 47 98
e 47 101
e 47 102
e 47 115
e 47 116
e 47 118
e 47 128
e 47 133
e 47 163
e 47 169
e 47 203
e 47 212
e 47 229
e 47 232
e 48 51
e 48 59
e 48 62
e 48 64
e 48 65
e 48 68
e 48 70
e 48 71
e 48 72
e 48 80
e 48 82
e 48 87
e 48 89
e 48 90
e 48 91
e 48 97
e 48 101
e 48 109
e 48 113
e 48 114
e 48 127
e 48 139
e 48 140
e 48 144
e 48 153
e 48 173
e 48 193
e 48 200
e 48 206
e 48 216
e 48 221
e 48 224
e 48 233
e 48 245
e 48 246
e 49 54
e 49 84
e 49 85
e 49 94
e 49 100
e 49 121
e 49 136
e 49 148
e 49 157
e 49 161
e 49 162
e 49 172
e 49 179
e 49 180
e 49 186
e 49 187
e 49 194
e 49 214
e 49 218
e 49 222
e 49 235
e 49 247
e 50 57
e 50 67
e 50 69
e 50 71
e 50 75
e 50 78
e 50 82
e 50 85
e 50 87
e 50 91
e 50 96
e 50 102
e 50 109
e 50 116
e 50 125
e 50 129
e 50 134
e 50 137
e 50 147
e 50 148
e 50 153
e 50 170
e 50 175
e 50 231
e 50 251
e 51 52
e 51 61
e 51 69
e 51 76
e 51 79
e 51 92
e 51 99
e 51 103
e 51 126
e 51 133
e 51 137
e 51 169
e 51 170
e 51 218
e 51 219
e 51 221
e 51 241
e 51 244
e 51 254
e 52 56
e 52 59
e 52 60
e 52 61
e 52 68
e 52 71
e 52 75
e 52 77
e 52 83
e 52 84
e 52 87
e 52 88
e 52 90
e 52 93
e 52 94
e 52 98
e 52 101
e 52 107
e 52 110
e 52 116
e 52 128
e 52 145
e 52 158
e 52 159
e 52 166
e 52 177
e 52 179
e 52 181
e 52 183
e 52 191
e 52 195
e 52 208
e 52 214
e 52 253
e 53 59
e 53 60
e 53 79
e 53 81
e 53 84
e 53 90
e 53 94
e 53 104
e 53 105
e 53 110
e 53 122
e 53 143
e 53 144
e 53 149
e 53 152
e 53 157
e 53 166
e 53 195
e 53 206
e 53 213
e 53 216
e 53 223
e 54 58
e 54 61
e 54 66
e 54 84
e 54 87
e 54 104
e 54 105
e 54 107
e 54 120
e 54 126
e 54 146
e 54 147
e 54 171
e 54 203
e 54 209
e 54 212
e 54 227
e 54 248
e 55 70
e 55 71
e 55 76
e 55 81
e 55 82
e 55 84
e 55 87
e 55 92
e 55 96
e 55 115
e 55 124
e 55 126
e 55 127
e 55 128
e 55 132
e 55 135
e 55 136
e 55 137
e 55 141
e 55 147
e 55 167
e 55 184
e 55 189
e 55 202
e 55 205
e 55 210
e 55 211
e 55 220
e 55 234
e 55 235
e 55 239
e 55 254
e 56 79
e 56 86
e 56 107
e 56 109
e 56 110
e 56 121
e 56 130
e 56 134
e 56 136
e 56 141
e 56 155
e 56 156
e 56 199
e 56 204
e 56 217
e 56 229
e 57 65
e 57 86
e 57 87
e 57 97
e 57 104
e 57 105
e 57 111
e 57 137
e 57 140
e 57 157
e 57 166
e 57 171
e 57 198
e 57 216
e 57 222
e 57 242
e 58 62
e 58 68
e 58 70
e 58 73
e 58 74
e 58 76
e 58 78
e 58 79
e 58 96
e 58 98
e 58 111
e 58 127
e 58 131
e 58 148
e 58 188
e 58 196
e 58 215
e 58 232
e 58 249
e 59 63
e 59 64
e 59 65
e 59 66
e 59 68
e 59 72
e 59 74
e 59 75
e 59 77
e 59 78
e 59 83
e 59 84
e 59 89
e 59 96
e 59 107
e 59 119
e 59 120
e 59 122
e 59 126
e 59 174
e 59 206
e 59 216
e 59 224
e 60 61
e 60 62
e 60 66
e 60 68
e 60 72
e 60 76
e 60 82
e 60 87
e 60 88
e 60 116
e 60 120
e 60 133
e 60 147
e 60 156
e 60 158
e 60 196
e 60 204
e 60 212
e 60 217
e 60 218
e 60 250
e 61 67
e 61 70
e 61 74
e 61 85
e 61 86
e 61 89
e 61 98
e 61 106
e 61 107
e 61 121
e 61 132
e 61 137
e 61 151
e 61 172
e 61 191
e 61 203
e 61 214
e 61 227
e 61 229
e 61 230
e 61 233
e 61 240
e 61 242
e 61 250
e 62 75
e 62 79
e 62 90
e 62 94
e 62 117
e 62 120
e 62 150
e 62 158
e 62 162
e 62 168
e 62 195
e 62 198
e 62 199
e 62 201
e 62 205
e 62 228
e 62 239
e 63 65
e 63 72
e 63 94
e 63 95
e 63 97
e 63 99
e 63 100
e 63 101
e 63 102
e 63 104
e 63 105
e 63 109
e 63 111
e 63 119
e 63 129
e 63 130
e 63 131
e 63 136
e 63 137
e 63 138
e 63 143
e 63 144
e 63 145
e 63 153
e 63 155
e 63 158
e 63 160
e 63 187
e 63 189
e 63 190
e 63 192
e 63 198
e 63 199
e 63 200
e 63 202
e 63 206
e 63 207
e 63 228
e 63 232
e 63 234
e 63 237
e 63 239
e 63 243
e 63 245
e 63 246
e 63 251
e 63 252
e 64 65
e 64 78
e 64 80
e 64 81
e 64 90
e 64 94
e 64 106
e 64 110
e 64 113
e 64 115
e 64 117
e 64 118
e 64 125
e 64 128
e 64 145
e 64 150
e 64 162
e 64 164
e 64 171
e 64 205
e 64 207
e 64 213
e 64 221
e 64 229
e 64 234
e 64 240
e 64 244
e 64 254
e 65 72
e 65 73
e 65 85
e 65 86
e 65 100
e 65 112
e 65 116
e 65 119
e 65 131
e 65 157
e 65 161
e 65 178
e 65 186
e 65 190
e 65 194
e 66 68
e 66 74
e 66 77
e 66 78
e 66 97
e 66 99
e 66 106
e 66 112
e 66 124
e 66 135
e 66 155
e 66 163
e 66 164
e 66 169
e 66 173
e 66 181
e 66 200
e 66 204
e 66 217
e 66 230
e 66 231
e 66 251
e 66 254
e 67 72
e 67 79
e 67 85
e 67 92
e 67 97
e 67 102
e 67 121
e 67 122
e 67 123
e 67 134
e 67 138
e 67 144
e 67 147
e 67 149
e 67 160
e 67 165
e 67 170
e 67 177
e 67 186
e 67 188
e 67 197
e 67 213
e 67 216
e 67 220
e 67 248
e 68 80
e 68 122
e 68 131
e 68 164
e 68 176
e 68 184
e 68 194
e 68 196
e 68 209
e 68 227
e 68 231
e 68 237
e 68 241
e 69 73
e 69 74
e 69 81
e 69 87
e 69 89
e 69 97
e 69 113
e 69 114
e 69 116
e 69 120
e 69 125
e 69 126
e 69 136
e 69 154
e 69 183
e 69 184
e 69 187
e 69 191
e 69 197
e 69 214
e 69 216
e 69 220
e 69 224
e 69 242
e 69 246
e 69 249
e 70 72
e 70 80
e 70 83
e 70 90
e 70 91
e 70 100
e 70 102
e 70 108
e 70 110
e 70 113
e 70 123
e 70 133
e 70 146
e 70 147
e 70 152
e 70 155
e 70 169
e 70 191
e 70 194
e 70 198
e 70 202
e 70 203
e 70 205
e 70 221
e 70 226
e 70 238
e 70 245
e 70 249
e 71 82
e 71 88
e 71 89
e 71 90
e 71 97
e 71 103
e 71 114
e 71 122
e 71 137
e 71 144
e 71 150
e 71 153
e 71 177
e 71 180
e 71 194
e 71 204
e 71 207
e 71 209
e 71 213
e 71 226
e 71 229
e 71 239
e 71 253
e 72 74
e 72 95
e 72 150
e 72 151
e 72 164
e 72 171
e 72 183
e 73 110
e 73 113
e 73 120
e 73 142
e 73 159
e 73 162
e 73 166
e 73 181
e 73 182
e 73 205
e 73 206
e 73 223
e 73 226
e 73 244
e 73 251
e 74 96
e 74 98
e 74 115
e 74 134
e 74 151
e 74 172
e 74 174
e 74 183
e 74 207
e 74 229
e 75 77
e 75 80
e 75 102
e 75 109
e 75 127
e 75 181
e 75 190
e 75 215
e 75 224
e 75 229
e 75 250
e 76 84
e 76 87
e 76 106
e 76 115
e 76 139
e 76 144
e 76 177
e 76 202
e 76 235
e 76 237
e 77 79
e 77 81
e 77 86
e 77 90
e 77 105
e 77 117
e 77 128
e 77 133
e 77 134
e 77 138
e 77 140
e 77 142
e 77 146
e 77 150
e 77 152
e 77 160
e 77 173
e 77 183
e 77 188
e 77 200
e 77 208
e 77 223
e 77 229
e 77 239
e 78 97
e 78 108
e 78 120
e 78 142
e 78 144
e 78 146
e 78 163
e 78 178
e 78 189
e 78 207
e 78 224
e 78 248
e 78 250
e 79 86
e 79 93
e 79 105
e 79 110
e 79 124
e 79 127
e 79 129
e 79 134
e 79 162
e 79 166
e 79 172
e 79 208
e 80 82
e 80 93
e 80 95
e 80 107
e 80 108
e 80 111
e 80 115
e 80 125
e 80 165
e 80 174
e 80 178
e 80 199
e 80 227
e 80 240
e 80 249
e 81 93
e 81 108
e 81 114
e 81 120
e 81 123
e 81 135
e 81 165
e 81 188
e 81 190
e 81 192
e 82 87
e 82 91
e 82 104
e 82 117
e 82 118
e 82 130
e 82 157
e 82 171
e 82 222
e 82 223
e 82 233
e 83 86
e 83 105
e 83 174
e 83 183
e 83 235
e 84 90
e 84 92
e 84 94
e 84 103
e 84 110
e 84 112
e 84 133
e 84 148
e 84 150
e 84 151
e 84 155
e 84 158
e 84 172
e 84 176
e 84 180
e 84 191
e 84 197
e 84 200
e 84 218
e 84 220
e 84 224
e 84 228
e 84 232
e 84 243
e 84 245
e 85 86
e 85 90
e 85 99
e 85 100
e 85 108
e 85 112
e 85 114
e 85 132
e 85 135
e 85 141
e 85 154
e 85 159
e 85 160
e 85 170
e 85 174
e 85 180
e 85 193
e 85 199
e 85 203
e 85 211
e 85 230
e 85 241
e 86 117
e 86 135
e 86 142
e 86 156
e 86 158
e 86 171
e 86 172
e 86 183
e 86 186
e 86 196
e 86 252
e 87 98
e 87 111
e 87 133
e 87 137
e 87 138
e 87 139
e 87 146
e 87 152
e 87 154
e 87 156
e 87 190
e 87 192
e 87 193
e 87 200
e 87 204
e 87 212
e 87 225
e 87 231
e 87 232
e 87 238
e 87 239
e 87 241
e 88 99
e 88 104
e 88 112
e 88 134
e 88 136
e 88 137
e 88 158
e 88 166
e 88 191
e 88 225
e 89 115
e 89 120
e 89 147
e 89 159
e 89 165
e 89 235
e 89 241
e 89 245
e 89 246
e 90 103
e 90 129
e 90 149
e 90 163
e 90 166
e 90 171
e 90 195
e 90 207
e 91 96
e 91 104
e 91 120
e 91 139
e 91 151
e 91 154
e 91 169
e 91 179
e 91 185
e 91 191
e 91 192
e 91 199
e 91 201
e 91 203
e 91 226
e 91 250
e 92 94
e 92 96
e 92 103
e 92 114
e 92 130
e 92 138
e 92 139
e 92 160
e 92 179
e 92 189
e 92 198
e 92 208
e 92 233
e 92 236
e 92 241
e 92 254
e 93 94
e 93 107
e 93 109
e 93 114
e 93 141
e 93 152
e 93 165
e 93 172
e 93 176
e 93 178
e 93 183
e 93 190
e 93 197
e 93 198
e 94 103
e 94 107
e 94 117
e 94 167
e 94 180
e 95 100
e 95 114
e 95 118
e 95 130
e 95 136
e 95 140
e 95 161
e 95 164
e 95 167
e 95 169
e 95 219
e 95 221
e 95 230
e 95 232
e 95 238
e 96 97
e 96 106
e 96 111
e 96 128
e 96 138
e 96 147
e 96 173
e 96 182
e 96 189
e 96 210
e 96 237
e 96 244
e 96 249
e 97 100
e 97 109
e 97 113
e 97 129
e 97 130
e 97 133
e 97 151
e 97 154
e 97 167
e 97 168
e 97 230
e 97 232
e 97 238
e 97 247
e 97 248
e 98 119
e 98 125
e 98 143
e 98 154
e 98 161
e 98 162
e 98 172
e 98 199
e 98 205
e 98 233
e 99 129
e 99 132
e 99 136
e 99 219
e 99 220
e 99 231
e 100 129
e 100 210
e 100 233
e 101 105
e 101 132
e 101 146
e 101 155
e 101 165
e 101 180
e 101 182
e 101 184
e 101 189
e 101 196
e 101 206
e 101 210
e 101 231
e 101 235
e 101 236
e 101 241
e 101 251
e 102 111
e 102 113
e 102 122
e 102 124
e 102 141
e 102 143
e 102 144
e 102 150
e 102 159
e 102 162
e 102 168
e 102 179
e 102 180
e 102 182
e 102 189
e 102 221
e 102 236
e 102 244
e 103 112
e 103 128
e 103 140
e 103 157
e 103 236
e 103 246
e 104 108
e 104 114
e 104 119
e 104 131
e 104 138
e 104 173
e 104 181
e 104 194
e 105 113
e 105 119
e 105 148
e 105 153
e 105 154
e 105 160
e 105 162
e 105 187
e 105 199
e 105 202
e 105 208
e 105 223
e 105 235
e 105 249
e 105 250
e 106 119
e 106 120
e 106 121
e 106 124
e 106 126
e 106 129
e 106 132
e 106 133
e 106 139
e 106 143
e 106 153
e 106 160
e 106 161
e 106 183
e 106 197
e 106 204
e 106 221
e 106 224
e 106 244
e 106 247
e 106 254
e 107 108
e 107 111
e 107 119
e 107 122
e 107 127
e 107 133
e 107 138
e 107 140
e 107 152
e 107 156
e 107 170
e 107 172
e 107 208
e 107 220
e 107 232
e 107 234
e 107 241
e 107 242
e 107 247
e 107 248
e 108 115
e 108 118
e 108 124
e 108 140
e 108 148
e 108 153
e 108 179
e 108 182
e 108 186
e 108 211
e 108 214
e 108 223
e 109 117
e 109 136
e 109 142
e 109 171
e 109 174
e 109 203
e 109 225
e 110 139
e 110 171
e 110 177
e 110 194
e 110 196
e 110 218
e 110 245
e 110 251
e 111 113
e 111 140
e 111 143
e 111 169
e 111 170
e 111 184
e 111 188
e 111 231
e 111 236
e 112 125
e 112 157
e 112 168
e 112 224
e 112 225
e 113 120
e 113 122
e 113 132
e 113 139
e 113 140
e 113 143
e 113 154
e 113 175
e 113 176
e 113 177
e 113 179
e 113 186
e 113 218
e 113 220
e 113 230
e 113 231
e 114 123
e 114 129
e 114 131
e 114 143
e 114 145
e 114 157
e 114 166
e 114 184
e 114 213
e 114 219
e 114 222
e 114 228
e 114 234
e 115 117
e 115 122
e 115 134
e 115 142
e 115 143
e 115 157
e 115 163
e 115 180
e 115 206
e 115 222
e 115 223
e 115 251
e 116 118
e 116 124
e 116 154
e 116 155
e 116 163
e 116 175
e 116 179
e 116 190
e 117 128
e 117 150
e 117 153
e 117 154
e 117 159
e 117 166
e 117 170
e 117 173
e 117 204
e 117 213
e 117 235
e 117 238
e 117 240
e 118 135
e 118 150
e 118 165
e 118 173
e 118 175
e 118 202
e 118 244
e 119 123
e 119 132
e 119 149
e 119 167
e 119 171
e 119 175
e 119 192
e 119 193
e 119 202
e 119 215
e 119 230
e 119 236
e 119 252
e 120 151
e 120 190
e 120 192
e 120 198
e 120 228
e 121 122
e 121 126
e 121 158
e 121 164
e 121 176
e 121 178
e 121 181
e 121 184
e 121 214
e 121 215
e 121 221
e 121 234
e 122 130
e 122 199
e 122 225
e 123 135
e 123 141
e 123 150
e 123 153
e 123 187
e 123 193
e 123 201
e 123 253
e 124 127
e 124 128
e 124 136
e 124 152
e 124 185
e 124 220
e 124 239
e 124 242
e 125 127
e 125 134
e 125 182
e 125 186
e 125 214
e 125 239
e 126 171
e 126 183
e 126 201
e 126 206
e 126 209
e 126 230
e 127 128
e 127 129
e 127 149
e 127 158
e 127 159
e 127 168
e 127 182
e 127 184
e 127 189
e 127 199
e 127 209
e 127 227
e 127 233
e 127 235
e 127 238
e 128 143
e 128 152
e 128 178
e 128 180
e 128 249
e 129 131
e 129 144
e 129 198
e 129 205
e 129 213
e 129 214
e 129 223
e 129 224
e 129 243
e 130 136
e 130 137
e 130 149
e 130 159
e 130 164
e 130 167
e 130 169
e 130 174
e 130 187
e 130 193
e 130 202
e 131 144
e 131 163
e 131 172
e 131 178
e 131 248
e 132 133
e 132 166
e 132 201
e 132 204
e 132 221
e 132 230
e 133 148
e 133 149
e 133 158
e 133 162
e 133 194
e 133 225
e 133 226
e 133 242
e 133 243
e 134 145
e 134 186
e 134 192
e 134 193
e 134 203
e 135 155
e 135 173
e 136 149
e 136 170
e 136 225
e 137 165
e 137 177
e 137 181
e 138 141
e 138 171
e 138 228
e 138 238
e 138 253
e 139 144
e 139 145
e 139 149
e 139 166
e 139 196
e 139 211
e 139 225
e 139 227
e 140 150
e 140 169
e 140 210
e 140 243
e 141 177
e 141 185
e 141 207
e 141 231
e 142 144
e 142 154
e 142 161
e 142 173
e 142 183
e 142 195
e 142 228
e 142 243
e 142 246
e 142 247
e 143 148
e 143 168
e 143 174
e 143 180
e 143 195
e 143 213
e 143 232
e 143 244
e 144 159
e 144 184
e 144 186
e 144 215
e 144 227
e 144 232
e 144 238
e 145 157
e 145 184
e 145 219
e 146 147
e 146 158
e 146 206
e 146 219
e 147 184
e 147 186
e 147 215
e 148 172
e 148 190
e 148 199
e 148 201
e 148 206
e 148 229
e 149 152
e 149 155
e 149 165
e 149 192
e 149 197
e 149 217
e 149 223
e 149 225
e 149 226
e 149 238
e 150 156
e 150 162
e 150 163
e 150 180
e 150 190
e 150 192
e 150 207
e 150 209
e 150 217
e 150 229
e 150 244
e 150 253
e 151 173
e 151 187
e 151 208
e 151 210
e 151 230
e 151 237
e 151 242
e 152 153
e 152 161
e 152 179
e 152 214
e 152 229
e 152 248
e 152 254
e 153 253
e 154 167
e 154 195
e 154 203
e 154 211
e 155 172
e 155 195
e 155 201
e 155 217
e 155 237
e 155 247
e 156 165
e 156 185
e 156 192
e 156 222
e 156 226
e 156 247
e 156 251
e 157 162
e 157 221
e 158 160
e 158 178
e 158 181
e 158 185
e 158 186
e 158 194
e 158 196
e 158 199
e 158 238
e 159 204
e 159 208
e 159 212
e 159 213
e 159 236
e 159 246
e 159 248
e 159 251
e 160 162
e 160 172
e 160 225
e 160 242
e 160 246
e 161 163
e 161 177
e 161 205
e 161 210
e 162 244
e 163 168
e 163 176
e 163 178
e 163 219
e 164 200
e 164 212
e 165 167
e 165 174
e 165 179
e 165 219
e 165 226
e 165 227
e 166 176
e 166 202
e 166 203
e 166 244
e 166 250
e 166 253
e 167 171
e 167 179
e 167 198
e 167 222
e 167 252
e 168 179
e 168 189
e 168 229
e 169 252
e 170 218
e 170 246
e 171 205
e 171 217
e 171 218
e 171 221
e 172 181
e 172 190
e 172 225
e 172 228
e 172 230
e 172 247
e 172 249
e 173 209
e 173 214
e 174 193
e 174 211
e 175 177
e 175 222
e 175 223
e 176 191
e 176 195
e 177 188
e 177 191
e 178 202
e 178 211
e 179 186
e 179 188
e 179 198
e 179 225
e 179 233
e 179 241
e 180 185
e 180 203
e 180 225
e 181 188
e 181 193
e 181 211
e 181 216
e 181 230
e 181 235
e 181 251
e 182 185
e 182 194
e 183 187
e 183 222
e 183 250
e 184 191
e 184 222
e 184 234
e 185 210
e 186 189
e 186 216
e 186 237
e 187 237
e 187 244
e 188 236
e 188 238
e 188 243
e 189 237
e 189 241
e 190 207
e 190 243
e 191 234
e 192 197
e 192 200
e 192 205
e 192 209
e 192 219
e 192 237
e 192 239
e 192 251
e 193 224
e 194 212
e 194 214
e 194 232
e 194 234
e 195 212
e 195 245
e 195 254
e 196 198
e 196 217
e 196 242
e 197 245
e 197 249
e 198 204
e 199 230
e 199 245
e 201 206
e 201 210
e 202 212
e 202 222
e 202 245
e 202 247
e 203 252
e 204 223
e 204 236
e 204 244
e 205 210
e 205 213
e 205 229
e 205 230
e 205 236
e 206 211
e 206 241
e 207 215
e 207 243
e 208 247
e 208 254
e 209 233
e 209 242
e 209 245
e 209 246
e 209 252
e 210 216
e 210 228
e 210 243
e 211 247
e 211 251
e 212 240
e 213 223
e 213 242
e 215 235
e 215 251
e 216 251
e 216 252
e 217 226
e 217 241
e 217 251
e 220 234
e 222 232
e 222 248
e 224 227
e 225 234
e 225 239
e 225 248
e 226 239
e 228 253
e 229 240
e 231 250
e 233 249
e 235 252
e 236 245
e 237 253
e 239 245
e 241 246
e 243 251
